\ This file has been generated by DOcplex
\ ENCODING=ISO-8859-1
\Problem name: <decpomdp.DecPOMDP object at 0x105ac8b80> problem

Maximize
 obj: 0.500000000000 V_0 + 0.500000000000 V_1
Subject To
 c1: - 220.656250000000 a0_0 - 326 a0_1 - 216 a0_2 - V_0 >= 0
 c2: - 326 a0_0 - 275 a0_1 - 325 a0_2 - V_0 >= 0
 c3: - 216 a0_0 - 325 a0_1 - 205 a0_2 - V_0 >= 0
 c4: - 220.656250000000 a0_0 - 216 a0_1 - 326 a0_2 - V_1 >= 0
 c5: - 216 a0_0 - 205 a0_1 - 325 a0_2 - V_1 >= 0
 c6: - 326 a0_0 - 325 a0_1 - 275 a0_2 - V_1 >= 0
 c7: a0_0 + a0_1 + a0_2 = 1

Bounds
       a0_0 <= 1
       a0_1 <= 1
       a0_2 <= 1
       V_0 Free
       V_1 Free
End
